Route #1: 54 8 76 41 61 46 69 65 42 51 3 33 75 44 7 34 78 79 20 116 111 140 154 86 53 80
Route #2: 155 92 125 93 132 40 30 157 112 87 4 101 151 146 39 120 13 24 23 58 35 36 94 100 66 56 123 43 142 96 102 52
Route #3: 25 47 98 83 104 63 113 70 12 64 18 19 22 67 62 114 95 129 88 106 31 99 130 68 145 90
Route #4: 136 91 74 81 158 108 137 16 32 57 131 5 71 37 6 49 73 38 11 48 26 28 150 152 45 50
Route #5: 156 115 103 118 82 2 109 148 134 124 128 110 153 160 85 121 147 159 135 141 72 59
Route #6: 29 119 144 126 143 84 122 107 133 138 149 89 14 1 55 60 21 9 27 117 97 77 161 17 139 105 10 15 127
Cost 11785.000000